12,9	0,0	5,5	19,3	0,0	0,0	0,0	0,0	0,0	7,8
18,7	16,6	0,0	12,5	17,7	0,0	0,0	8,3	0,0	0,0
0,0	0,0	19,2	0,0	7,2	13,5	0,0	0,0	13,3	0,0
16,4	0,0	14,8	0,0	0,0	0,0	8,8	0,0	0,0	0,0
0,0	17,6	0,0	9,2	13,5	0,0	0,0	9,6	0,0	0,0
0,0	5,6	14,1	0,0	17,2	14,4	0,0	0,0	14,6	0,0
0,0	14,5	0,0	18,2	0,0	0,0	15,1	0,0	0,0	16,0
13,8	0,0	19,2	0,0	0,0	0,0	0,0	0,0	0,0	9,6
0,0	18,8	0,0	10,2	13,5	0,0	0,0	7,3	0,0	0,0
0,0	0,0	18,6	0,0	0,0	19,4	10,7	0,0	0,0	19,6
									
4,9	4,3	3,6	2,8	3,6	3,6	3,5	4,5	4,0	3,0
